colors = 6; % optimal is 6
n = 47;
e = 236;
start = [1,1,1,1,1,1,1,1,1,1,1,1,1,1,1,1,2,2,2,2,2,2,2,2,2,2,2,2,2,2,2,3,3,3,3,3,3,3,3,3,3,3,3,3,3,3,4,4,4,4,4,4,4,4,4,4,4,4,4,4,4,5,5,5,5,5,5,5,5,5,5,5,5,5,5,6,6,6,6,6,6,6,6,6,6,7,7,7,7,7,7,7,7,7,7,8,8,8,8,8,8,8,8,8,8,9,9,9,9,9,9,9,9,9,9,10,10,10,10,10,10,10,10,10,10,11,11,11,11,11,11,11,11,11,11,11,11,11,11,11,12,12,12,12,12,12,13,13,13,13,13,13,14,14,14,14,14,14,15,15,15,15,15,15,16,16,16,16,16,16,17,17,17,17,17,18,18,18,18,18,19,19,19,19,19,20,20,20,20,20,21,21,21,21,21,22,22,22,22,22,22,22,23,23,23,23,23,23,23,23,23,23,23,24,25,26,27,28,29,30,31,32,33,34,35,36,37,38,39,40,41,42,43,44,45,46];
end = [2,4,7,9,13,15,18,20,25,27,30,32,36,38,41,43,3,6,8,12,14,17,19,24,26,29,31,35,37,40,42,5,7,10,13,16,18,21,25,28,30,33,36,39,41,44,5,6,10,12,16,17,21,24,28,29,33,35,39,40,44,8,9,14,15,19,20,26,27,31,32,37,38,42,43,11,13,15,22,25,27,34,36,38,45,11,12,14,22,24,26,34,35,37,45,11,13,16,22,25,28,34,36,39,45,11,12,16,22,24,28,34,35,39,45,11,14,15,22,26,27,34,37,38,45,17,18,19,20,21,29,30,31,32,33,40,41,42,43,44,23,25,27,30,32,46,23,24,26,29,31,46,23,25,28,30,33,46,23,24,28,29,33,46,23,26,27,31,32,46,23,25,27,34,46,23,24,26,34,46,23,25,28,34,46,23,24,28,34,46,23,26,27,34,46,23,29,30,31,32,33,46,35,36,37,38,39,40,41,42,43,44,45,47,47,47,47,47,47,47,47,47,47,47,47,47,47,47,47,47,47,47,47,47,47,47];